p cnf 1302 1344
c ind 1293 852 857 858 859 860 861 863 864 865 0
c ind 866 867 868 869 870 871 872 873 874 875 0
c ind 876 877 878 879 880 881 882 887 888 894 0
c ind 895 896 897 898 899 900 901 902 903 904 0
c ind 905 906 907 908 917 918 919 920 923 924 0
c ind 925 926 927 928 931 932 933 934 935 936 0
c ind 945 946 947 948 951 952 953 954 955 956 0
c ind 959 960 961 962 963 964 965 966 967 968 0
c ind 969 971 972 973 974 975 976 977 978 979 0
c ind 980 981 982 983 984 985 986 987 988 989 0
c ind 990 991 993 995 996 997 998 999 1000 1001 0
c ind 1002 1003 1004 1008 1009 1010 1011 1012 1014 1016 0
c ind 1017 1018 1019 1020 1021 1022 1023 1024 1025 1031 0
c ind 1032 1043 1044 1045 1046 1048 1049 1051 1053 1057 0
c ind 1062 1063 1064 1065 1066 1067 1068 1069 1070 1071 0
c ind 1072 1073 1074 1075 1076 1077 1079 1081 1082 1085 0
c ind 1086 1087 1088 1089 1093 1094 1095 1096 1097 1100 0
c ind 1101 1102 1103 1104 1105 1106 1107 1108 1109 1110 0
c ind 1111 1114 1115 1116 1117 1118 1122 1123 1124 1125 0
c ind 1126 1130 1131 1132 1133 1134 1137 1138 1139 1140 0
c ind 1142 1143 1144 1145 1146 1147 1148 1149 1150 1151 0
c ind 1152 1153 1154 1155 1156 1157 1158 1159 1160 1161 0
c ind 1162 1163 1164 1165 1166 1167 1168 1169 1171 1172 0
c ind 1173 1174 1175 1176 1177 1178 1179 1180 1181 1182 0
c ind 1183 1184 1185 1186 1187 1188 1189 1190 1191 1192 0
c ind 1193 1194 1195 1196 1197 1198 1200 1201 1202 1203 0
c ind 1204 1205 1206 1207 1208 1209 1210 1211 1212 1213 0
c ind 1214 1215 1216 1217 1218 1219 1220 1221 1222 1223 0
c ind 1224 1225 1226 1227 1229 1230 1231 1232 1233 1234 0
c ind 1235 1236 1237 1238 1239 1240 1241 1242 1243 1244 0
c ind 1245 1246 1247 1248 1249 1250 1251 1252 1253 1254 0
c ind 1255 1256 1258 1260 1261 1262 1264 1300 1269 1273 0
c ind 1278 1291 1292 1299 1290 1268 1272 1277 1282 1283 0
c ind 1285 1281 1287 1284 1286 1289 1295 1298 1267 1280 0
c ind 853 854 1271 1276 1288 1297 1279 1294 862 1265 0
c ind 1270 1275 1266 1296 1263 1027 1030 1274 1028 1029 0
c ind 970 855 1259 856 1257 1135 1136 1129 1141 1170 0
c ind 1199 1228 1098 1099 1127 1128 1121 1119 1120 1092 0
c ind 1113 1090 1091 1112 1078 1080 1083 1084 1050 1052 0
c ind 1058 1059 1060 1061 1055 1056 1013 1015 1036 1037 0
c ind 1039 1040 1041 1042 1033 1034 1035 1038 1047 1054 0
c ind 1007 1005 1006 1026 992 994 851 883 886 884 0
c ind 885 891 893 890 892 949 950 889 944 957 0
c ind 958 940 922 929 930 937 938 939 941 942 0
c ind 916 943 909 912 921 910 911 913 914 915 0
c ind 1 0
c ret 619 620 621 622 623 624 625 626 627 628 0
c ret 629 630 631 632 633 634 635 636 637 638 0
c ret 639 640 641 642 643 644 645 646 647 648 0
c ret 649 650 651 652 653 654 655 656 657 658 0
c ret 659 660 661 662 663 664 665 666 667 668 0
c ret 669 670 671 672 673 674 675 676 677 678 0
c ret 679 680 681 682 683 684 685 686 687 688 0
c ret 689 690 691 692 693 694 695 696 697 698 0
c ret 699 700 701 702 703 704 705 706 707 708 0
c ret 709 710 711 712 713 714 715 716 717 718 0
c ret 719 720 721 722 723 724 725 726 727 728 0
c ret 729 730 731 732 733 734 735 736 737 738 0
c ret 739 740 741 742 743 744 745 746 747 748 0
c ret 749 750 751 752 753 754 755 756 757 758 0
c ret 759 760 761 762 763 764 765 766 767 768 0
c ret 769 770 771 772 773 774 775 776 777 778 0
c ret 779 780 781 782 783 784 785 786 787 788 0
c ret 789 790 791 792 793 794 795 796 797 798 0
c ret 799 800 801 802 803 804 805 806 807 808 0
c ret 809 810 811 812 314 813 814 320 321 322 0
c ret 323 815 324 325 326 327 328 329 330 331 0
c ret 332 333 334 335 336 337 338 339 340 341 0
c ret 342 343 344 345 816 817 346 347 348 818 0
c ret 349 819 350 351 352 353 354 355 356 315 0
c ret 357 358 359 360 361 362 363 364 365 366 0
c ret 820 821 367 368 822 369 823 370 371 372 0
c ret 373 374 375 376 377 378 379 380 381 382 0
c ret 383 824 384 385 386 387 388 389 390 825 0
c ret 826 391 827 392 828 393 394 395 396 397 0
c ret 316 398 399 400 401 402 403 404 405 406 0
c ret 829 407 408 409 410 411 830 412 831 413 0
c ret 414 415 416 832 833 417 418 419 420 421 0
c ret 422 423 424 425 426 427 428 429 430 431 0
c ret 834 432 835 433 434 435 836 436 837 437 0
c ret 317 438 439 440 441 442 443 444 445 446 0
c ret 447 448 449 450 838 451 452 453 839 454 0
c ret 840 455 456 841 842 457 458 459 460 461 0
c ret 462 463 464 465 466 467 468 843 844 469 0
c ret 470 471 472 845 473 474 475 476 477 478 0
c ret 479 480 481 482 483 484 485 486 487 846 0
c ret 488 489 490 491 847 492 848 493 849 850 0
c ret 494 495 496 497 498 499 500 501 502 503 0
c ret 504 505 506 507 508 318 509 510 511 512 0
c ret 513 514 515 516 517 518 519 520 521 522 0
c ret 523 524 525 526 527 528 529 530 531 532 0
c ret 533 534 535 536 537 538 539 540 541 542 0
c ret 543 544 545 546 547 319 548 549 550 551 0
c ret 552 553 554 555 556 557 558 559 560 561 0
c ret 562 563 564 565 566 567 568 569 570 571 0
c ret 572 573 574 575 576 577 578 579 580 581 0
c ret 582 583 584 585 586 587 588 589 590 591 0
c ret 592 593 594 595 596 597 598 599 600 601 0
c ret 602 603 604 605 606 607 608 609 610 611 0
c ret 612 613 614 615 616 617 618 0
2 140 308 -309 0
2 3 308 -309 0
-2 309 0
-2 -308 0
-2 -3 -140 0
3 -4 -64 130 0
3 4 64 -120 0
3 4 64 130 0
3 -4 -64 -120 0
-3 4 -64 0
-3 -4 64 0
-3 120 -130 0
4 -5 -21 0
4 -5 58 0
-4 5 0
-4 21 -58 0
5 6 -14 0
-5 -6 0
-5 14 0
6 -7 -8 0
6 -7 -9 -12 0
-6 7 0
-6 8 12 0
-6 8 9 0
7 1112 0
7 -1113 1119 0
7 1113 1120 0
-7 -1112 1113 -1120 0
-7 -1112 -1113 -1119 0
8 1112 0
8 -1113 -1119 0
8 1113 -1120 0
-8 -1112 1113 1120 0
-8 -1112 -1113 1119 0
9 10 0
9 -1129 1135 0
9 1129 1136 0
-9 -10 -1129 -1135 0
-9 -10 1129 -1136 0
8 10 -11 0
-8 -10 0
-10 11 0
11 1121 1128 0
11 -1121 1127 0
-11 -1121 -1127 0
-11 1121 -1128 0
-11 12 -13 0
11 -12 0
-12 13 0
10 13 0
13 1129 -1136 0
13 -1129 -1135 0
-10 -13 1129 1136 0
-10 -13 -1129 1135 0
14 -15 17 0
14 -15 16 20 0
-14 15 0
-14 -16 -17 0
-14 -17 -20 0
15 -1141 -1170 -1199 -1228 0
-15 1228 0
-15 1141 0
-15 1199 0
-15 1170 0
16 1083 0
16 -1084 -1090 0
16 1084 -1091 0
-16 -1083 1084 1091 0
-16 -1083 -1084 1090 0
17 -18 -19 0
-16 17 -19 0
-17 19 0
16 -17 18 0
-16 18 0
18 1092 -1099 0
18 -1092 -1098 0
16 -18 -1092 1098 0
16 -18 1092 1099 0
19 1083 0
19 -1084 1090 0
19 1084 1091 0
-19 -1083 1084 -1091 0
-19 -1083 -1084 -1090 0
-16 20 0
20 -1092 1098 0
20 1092 1099 0
16 -20 -1092 -1098 0
16 -20 1092 -1099 0
21 -22 -57 -1300 0
21 22 -23 -57 0
-21 57 0
-21 -22 1300 0
-21 22 23 0
22 1078 -1080 0
-22 -1078 0
-22 1080 0
23 -24 -1299 0
23 24 -25 0
-23 -24 1299 0
-23 24 25 0
24 1050 -1052 0
-24 -1050 0
-24 1052 0
25 26 49 56 0
25 26 49 -52 0
-25 -26 0
-25 -49 0
-25 52 -56 0
26 -47 851 -1026 0
26 27 851 1026 0
-26 -851 0
-26 47 -1026 0
-26 -27 1026 0
27 -28 -1296 0
-27 1296 0
-27 28 0
28 -29 43 0
-28 29 0
-28 -43 0
29 -36 37 0
29 30 37 -916 0
-29 -37 0
-29 -30 36 0
-29 36 916 0
30 31 0
30 34 -915 0
30 34 921 0
-30 -31 -34 0
-30 -31 915 -921 0
31 -32 33 -909 -916 0
-31 32 0
-31 -33 0
-31 909 0
-31 916 0
32 910 911 912 0
-32 -910 0
-32 -912 0
-32 -911 0
33 913 -914 0
-33 -913 0
-33 914 0
34 35 915 921 -922 0
-34 -915 0
-34 -35 0
-34 922 0
-34 -921 0
35 929 930 0
-35 -929 0
-35 -930 0
32 36 -909 0
33 36 -909 -915 0
-36 909 0
-32 -36 915 0
-32 -33 -36 0
37 39 42 0
37 39 -41 0
37 38 39 0
-37 -39 0
-37 -38 41 -42 0
38 938 939 940 0
-38 -938 0
-38 -940 0
-38 -939 0
38 39 -937 0
39 40 -937 -943 0
-39 937 0
-38 -39 943 0
-38 -39 -40 0
40 941 -942 0
-40 -941 0
-40 942 0
41 949 950 0
41 949 957 958 0
-41 -949 0
-41 -950 -957 0
-41 -950 -958 0
40 42 -937 943 -944 0
-42 944 0
-40 -42 0
-42 937 0
-42 -943 0
43 -44 -883 0
43 -46 -883 0
43 -45 -883 0
-43 883 0
-43 44 45 46 0
44 -884 885 886 0
-44 884 0
-44 -886 0
-44 -885 0
45 889 892 893 0
-45 -889 0
-45 -893 0
-45 -892 0
46 -889 890 891 0
-46 889 0
-46 -891 0
-46 -890 0
47 -48 1297 0
27 47 48 0
-47 -48 -1297 0
-27 -47 48 0
48 992 -994 0
-48 -992 0
-48 994 0
49 -50 -51 -1036 0
49 -50 -51 -1037 0
-49 51 0
-49 50 0
-49 1036 1037 0
50 1039 1040 1041 1042 0
-50 -1042 0
-50 -1041 0
-50 -1039 0
-50 -1040 0
51 -1033 -1034 -1035 1038 0
-51 1035 0
-51 -1038 0
-51 1033 0
-51 1034 0
47 52 -53 0
-47 -52 0
-52 53 0
53 54 55 0
-53 -54 0
-53 -55 0
54 1013 -1015 0
-54 -1013 0
-54 1015 0
55 1005 1006 1007 0
-55 -1005 0
-55 -1007 0
-55 -1006 0
54 56 -851 0
56 -851 1298 0
-56 851 0
-54 -56 -1298 0
57 -1047 1054 0
-57 1047 0
-57 -1054 0
58 -59 -1047 0
23 25 58 0
23 58 -1047 0
25 58 -59 0
-25 -58 1047 0
-23 -58 59 0
59 61 1054 0
59 -60 61 0
59 61 1047 0
-59 -61 0
-59 60 -1047 -1054 0
60 -1055 1056 0
-60 1055 0
-60 -1056 0
61 62 -63 0
-61 -62 0
-61 63 0
62 1058 -1059 -1060 1061 0
-62 -1058 0
-62 -1061 0
-62 1060 0
-62 1059 0
63 -1047 -1054 -1055 1056 0
-63 1055 0
-63 -1056 0
-63 1047 0
-63 1054 0
64 -65 -75 0
64 -65 114 0
-64 65 0
-64 75 -114 0
65 -66 -72 0
-65 66 0
-65 72 0
66 68 -575 0
66 67 71 -575 0
-66 575 0
-66 -67 -68 0
-66 -68 -71 0
67 546 0
67 -547 -553 0
67 547 -554 0
-67 -546 547 554 0
-67 -546 -547 553 0
-67 68 -69 0
68 -69 -70 0
-68 69 0
67 -68 70 0
69 546 0
69 -547 553 0
69 547 554 0
-69 -546 547 -554 0
-69 -546 -547 -553 0
-67 70 0
70 555 -562 0
70 -555 -561 0
67 -70 -555 561 0
67 -70 555 562 0
-67 71 0
71 -555 561 0
71 555 562 0
67 -71 -555 -561 0
67 -71 555 -562 0
72 -73 -74 -604 0
-72 604 0
-72 73 0
-72 74 0
73 -633 -662 0
-73 633 0
-73 662 0
74 -691 -720 -749 -778 0
-74 778 0
-74 691 0
-74 749 0
-74 720 0
75 -76 -113 -850 0
75 76 -77 -113 0
-75 113 0
-75 -76 850 0
-75 76 77 0
76 541 -543 0
-76 -541 0
-76 543 0
77 -78 -849 0
77 78 -79 0
-77 -78 849 0
-77 78 79 0
78 513 -515 0
-78 -513 0
-78 515 0
79 80 105 112 0
79 80 105 -108 0
-79 -80 0
-79 -105 0
-79 108 -112 0
80 -103 314 -489 0
80 81 314 489 0
-80 -314 0
-80 103 -489 0
-80 -81 489 0
81 -82 -846 0
-81 846 0
-81 82 0
82 83 -87 0
-82 -83 0
-82 87 0
83 -84 -346 0
83 -86 -346 0
83 -85 -346 0
-83 346 0
-83 84 85 86 0
84 -347 348 349 0
-84 347 0
-84 -349 0
-84 -348 0
85 352 355 356 0
-85 -352 0
-85 -356 0
-85 -355 0
86 -352 353 354 0
-86 352 0
-86 -354 0
-86 -353 0
87 88 -95 0
87 88 98 -379 0
-87 -88 0
-87 95 -98 0
-87 95 379 0
88 -89 92 0
88 92 400 0
-88 -92 0
-88 89 -400 0
89 -91 403 406 0
89 -90 -91 403 0
-89 -403 0
-89 91 0
-89 90 -406 0
90 404 -405 0
-90 -404 0
-90 405 0
91 401 402 0
-91 -401 0
-91 -402 0
90 -91 92 93 -94 0
91 -92 0
-92 -93 0
-90 -92 0
-92 94 0
93 412 413 0
93 412 420 421 0
-93 -412 0
-93 -413 -420 0
-93 -413 -421 0
94 -400 403 406 -407 0
-94 407 0
-94 -406 0
-94 400 0
-94 -403 0
95 96 -372 0
95 97 -372 -378 0
-95 372 0
-95 -96 378 0
-95 -96 -97 0
96 373 374 375 0
-96 -373 0
-96 -375 0
-96 -374 0
97 376 -377 0
-97 -376 0
-97 377 0
98 99 102 0
-98 -99 0
-98 -102 0
99 -100 -101 -392 0
99 -100 -101 -393 0
-99 101 0
-99 100 0
-99 392 393 0
-96 97 100 -372 -379 0
96 -100 0
-97 -100 0
-100 372 0
-100 379 0
101 378 384 -385 0
-101 385 0
-101 -384 0
-101 -378 0
-100 102 378 -384 0
100 -102 0
-102 384 0
-102 -378 0
103 -104 847 0
81 103 104 0
-103 -104 -847 0
-81 -103 104 0
104 455 -457 0
-104 -455 0
-104 457 0
105 -106 -107 -499 0
105 -106 -107 -500 0
-105 107 0
-105 106 0
-105 499 500 0
106 502 503 504 505 0
-106 -505 0
-106 -504 0
-106 -502 0
-106 -503 0
107 -496 -497 -498 501 0
-107 498 0
-107 -501 0
-107 496 0
-107 497 0
103 108 -109 0
-103 -108 0
-108 109 0
109 110 111 0
-109 -110 0
-109 -111 0
110 468 469 470 0
-110 -468 0
-110 -470 0
-110 -469 0
111 476 -478 0
-111 -476 0
-111 478 0
111 112 -314 0
112 -314 848 0
-112 314 0
-111 -112 -848 0
113 -510 517 0
-113 510 0
-113 -517 0
114 -115 -510 0
77 79 114 0
77 114 -510 0
79 114 -115 0
-79 -114 510 0
-77 -114 115 0
115 117 517 0
115 -116 117 0
115 117 510 0
-115 -117 0
-115 116 -510 -517 0
116 -518 519 0
-116 518 0
-116 -519 0
117 118 -119 0
-117 -118 0
-117 119 0
118 521 -522 -523 524 0
-118 -521 0
-118 -524 0
-118 523 0
-118 522 0
119 -510 -517 -518 519 0
-119 518 0
-119 -519 0
-119 510 0
-119 517 0
-5 120 -121 0
-5 120 129 0
5 -120 0
-120 121 -129 0
22 -57 121 -122 0
-22 -57 121 -1278 0
57 -121 0
22 -121 122 0
-22 -121 1278 0
-24 122 -1277 0
24 122 -123 0
-24 -122 1277 0
24 -122 123 0
49 123 124 128 0
49 123 124 -127 0
-49 -123 0
-123 -124 0
-123 127 -128 0
124 -126 851 -1026 0
124 125 851 1026 0
-124 -851 0
-124 126 -1026 0
-124 -125 1026 0
-28 125 -1274 0
-125 1274 0
28 -125 0
-48 126 1275 0
48 125 126 0
-48 -126 -1275 0
48 -125 -126 0
-53 126 127 0
53 -127 0
-126 -127 0
54 128 -851 0
128 -851 1276 0
-128 851 0
-54 -128 -1276 0
-59 123 129 0
122 129 -1047 0
-59 129 -1047 0
122 123 129 0
59 -122 -129 0
-123 -129 1047 0
-65 130 -131 0
-65 130 139 0
65 -130 0
-130 131 -139 0
76 -113 131 -132 0
-76 -113 131 -828 0
113 -131 0
76 -131 132 0
-76 -131 828 0
-78 132 -827 0
78 132 -133 0
-78 -132 827 0
78 -132 133 0
105 133 134 138 0
105 133 134 -137 0
-105 -133 0
-133 -134 0
-133 137 -138 0
134 -136 314 -489 0
134 135 314 489 0
-134 -314 0
-134 136 -489 0
-134 -135 489 0
-82 135 -824 0
-135 824 0
82 -135 0
-104 136 825 0
104 135 136 0
-104 -136 -825 0
104 -135 -136 0
-109 136 137 0
109 -137 0
-136 -137 0
111 138 -314 0
138 -314 826 0
-138 314 0
-111 -138 -826 0
-115 133 139 0
132 139 -510 0
-115 139 -510 0
132 133 139 0
115 -132 -139 0
-133 -139 510 0
140 141 151 -161 -289 0
140 -141 -151 -161 -289 0
-140 289 0
-140 -141 151 0
-140 161 0
-140 141 -151 0
-5 141 -142 0
-5 141 150 0
5 -141 0
-141 142 -150 0
22 -57 142 -143 0
-22 -57 142 -1269 0
57 -142 0
22 -142 143 0
-22 -142 1269 0
-24 143 -1268 0
24 143 -144 0
-24 -143 1268 0
24 -143 144 0
49 144 145 149 0
49 144 145 -148 0
-49 -144 0
-144 -145 0
-144 148 -149 0
145 146 -851 1267 0
54 145 146 -851 0
-145 851 0
-145 -146 0
-54 -145 -1267 0
-53 146 147 0
53 -146 0
-146 -147 0
28 48 147 0
-48 147 1266 0
48 147 856 0
-48 -147 -1266 0
-28 48 -147 -856 0
-28 48 148 -856 0
-28 148 -856 1026 0
28 -148 0
-148 856 0
-48 -148 -1026 0
149 851 1266 0
149 851 1026 0
48 149 851 0
-149 -851 0
-48 -149 -1026 -1266 0
-59 144 150 0
143 150 -1047 0
-59 150 -1047 0
143 144 150 0
59 -143 -150 0
-144 -150 1047 0
-65 151 -152 0
-65 151 160 0
65 -151 0
-151 152 -160 0
76 -113 152 -153 0
-76 -113 152 -819 0
113 -152 0
76 -152 153 0
-76 -152 819 0
-78 153 -818 0
78 153 -154 0
-78 -153 818 0
78 -153 154 0
105 154 155 159 0
105 154 155 -158 0
-105 -154 0
-154 -155 0
-154 158 -159 0
155 156 -314 817 0
111 155 156 -314 0
-155 314 0
-155 -156 0
-111 -155 -817 0
-109 156 157 0
109 -156 0
-156 -157 0
82 104 157 0
-104 157 816 0
104 157 319 0
-104 -157 -816 0
-82 104 -157 -319 0
-82 104 158 -319 0
-82 158 -319 489 0
82 -158 0
-158 319 0
-104 -158 -489 0
159 314 816 0
159 314 489 0
104 159 314 0
-159 -314 0
-104 -159 -489 -816 0
-115 154 160 0
153 160 -510 0
-115 160 -510 0
153 154 160 0
115 -153 -160 0
-154 -160 510 0
161 -162 210 220 -230 0
161 -162 -210 -220 -230 0
-161 230 0
-161 -210 220 0
-161 162 0
-161 210 -220 0
162 -163 -179 -201 0
162 163 179 192 0
162 163 179 -201 0
162 -163 -179 192 0
-162 163 -179 0
-162 -163 179 0
-162 -192 201 0
163 -164 -167 0
163 -164 -177 0
163 -164 -176 0
-163 164 0
-163 167 176 177 0
-66 -73 164 -165 0
66 -164 0
73 -164 0
-164 165 0
165 -166 -604 -749 -778 0
-165 166 0
-165 604 0
-165 778 0
-165 749 0
166 -691 -720 0
-166 691 0
-166 720 0
167 170 -171 0
-109 167 168 -171 0
-167 171 0
-167 -168 -170 0
109 -167 -170 0
-104 168 839 0
104 168 169 0
-104 -168 -839 0
104 -168 -169 0
-82 169 -838 0
-169 838 0
82 -169 0
111 170 -314 0
170 -314 840 0
-170 314 0
-111 -170 -840 0
171 -172 175 0
-171 172 0
-171 -175 0
105 172 173 0
-105 -172 0
-172 -173 0
-78 173 -510 0
173 -174 -510 0
-173 510 0
78 -173 174 0
-76 117 174 517 0
-116 117 174 -517 0
-117 -174 0
116 -174 -517 0
76 -174 517 0
-168 175 314 -489 0
169 175 314 489 0
-175 -314 0
168 -175 -489 0
-169 -175 489 0
-76 -113 176 -842 0
-176 842 0
76 -176 0
113 -176 0
-78 177 -178 -841 0
-177 841 0
78 -177 0
-177 178 0
174 178 -510 0
-178 510 0
-174 -178 0
-14 179 189 -1112 0
-14 179 -180 -1112 0
-179 1112 0
14 -179 0
-179 180 -189 0
180 183 -184 0
-53 180 181 -184 0
-180 184 0
-180 -181 -183 0
53 -180 -183 0
-48 181 1289 0
48 181 182 0
-48 -181 -1289 0
48 -181 -182 0
-28 182 -1288 0
-182 1288 0
28 -182 0
54 183 -851 0
183 -851 1290 0
-183 851 0
-54 -183 -1290 0
184 -185 188 0
-184 185 0
-184 -188 0
49 185 186 0
-49 -185 0
-185 -186 0
-24 186 -1047 0
186 -187 -1047 0
-186 1047 0
24 -186 187 0
-22 61 187 1054 0
-60 61 187 -1054 0
-61 -187 0
60 -187 -1054 0
22 -187 1054 0
-181 188 851 -1026 0
182 188 851 1026 0
-188 -851 0
181 -188 -1026 0
-182 -188 1026 0
22 189 190 0
57 189 190 0
189 190 1292 0
-189 -190 0
-22 -57 -189 -1292 0
-24 190 -191 -1291 0
-190 1291 0
24 -190 0
-190 191 0
187 191 -1047 0
-191 1047 0
-187 -191 0
-5 192 -193 0
-5 192 -200 0
-5 192 -199 0
5 -192 0
-192 193 199 200 0
193 196 -197 0
-53 193 194 -197 0
-193 197 0
-193 -194 -196 0
53 -193 -196 0
-48 194 1280 0
48 194 195 0
-48 -194 -1280 0
48 -194 -195 0
-28 195 -1279 0
-195 1279 0
28 -195 0
54 196 -851 0
196 -851 1281 0
-196 851 0
-54 -196 -1281 0
-185 197 198 0
185 -197 0
-197 -198 0
-194 198 851 -1026 0
195 198 851 1026 0
-198 -851 0
194 -198 -1026 0
-195 -198 1026 0
-22 -57 199 -1283 0
-199 1283 0
22 -199 0
57 -199 0
-24 -191 200 -1282 0
-200 1282 0
24 -200 0
191 -200 0
-164 201 -202 0
-164 201 -209 0
-164 201 -208 0
164 -201 0
-201 202 208 209 0
202 205 -206 0
-109 202 203 -206 0
-202 206 0
-202 -203 -205 0
109 -202 -205 0
-104 203 830 0
104 203 204 0
-104 -203 -830 0
104 -203 -204 0
-82 204 -829 0
-204 829 0
82 -204 0
111 205 -314 0
205 -314 831 0
-205 314 0
-111 -205 -831 0
-172 206 207 0
172 -206 0
-206 -207 0
-203 207 314 -489 0
204 207 314 489 0
-207 -314 0
203 -207 -489 0
-204 -207 489 0
-76 -113 208 -833 0
-208 833 0
76 -208 0
113 -208 0
-78 -178 209 -832 0
-209 832 0
78 -209 0
178 -209 0
-5 186 210 211 0
-5 210 211 219 0
5 -210 0
-210 -211 0
-186 -210 -219 0
211 213 1047 0
24 211 212 213 0
-211 -213 0
-211 -212 -1047 0
-24 -211 -1047 0
-22 212 1054 -1287 0
22 -212 0
-212 1287 0
-212 -1054 0
49 213 214 218 0
49 213 214 -217 0
-49 -213 0
-213 -214 0
-213 217 -218 0
214 -216 851 -1026 0
214 215 851 1026 0
-214 -851 0
-214 216 -1026 0
-214 -215 1026 0
-28 215 -855 0
-215 855 0
28 -215 0
-48 216 1284 0
48 215 216 0
-48 -216 -1284 0
48 -215 -216 0
-53 216 217 0
53 -217 0
-216 -217 0
54 218 -851 0
218 -851 1285 0
-218 851 0
-54 -218 -1285 0
-187 212 219 0
212 219 1286 0
-212 -219 0
187 -219 -1286 0
-164 173 220 221 0
-164 220 221 229 0
164 -220 0
-220 -221 0
-173 -220 -229 0
221 223 510 0
78 221 222 223 0
-221 -223 0
-221 -222 -510 0
-78 -221 -510 0
-76 222 517 -837 0
76 -222 0
-222 837 0
-222 -517 0
105 223 224 228 0
105 223 224 -227 0
-105 -223 0
-223 -224 0
-223 227 -228 0
224 -226 314 -489 0
224 225 314 489 0
-224 -314 0
-224 226 -489 0
-224 -225 489 0
-82 225 -318 0
-225 318 0
82 -225 0
-104 226 834 0
104 225 226 0
-104 -226 -834 0
104 -225 -226 0
-109 226 227 0
109 -227 0
-226 -227 0
111 228 -314 0
228 -314 835 0
-228 314 0
-111 -228 -835 0
-174 222 229 0
222 229 836 0
-222 -229 0
174 -229 -836 0
230 231 232 244 -255 0
230 231 -232 -244 -255 0
-230 255 0
-230 -232 244 0
-230 -231 0
-230 232 -244 0
192 -201 231 0
-192 -231 0
201 -231 0
232 -236 851 0
55 232 -233 -236 0
-232 236 0
-232 233 -851 0
-55 -232 -851 0
233 970 -1295 0
233 -234 -970 0
-233 234 -970 0
-233 970 1295 0
-29 234 -1257 0
-29 43 234 235 0
29 -234 0
-234 -235 1257 0
-43 -234 1257 0
235 862 1294 0
-235 -862 0
-235 -1294 0
236 -237 241 0
-236 237 0
-236 -241 0
-15 237 -238 0
15 -237 0
-237 238 0
6 238 -239 -240 0
6 17 238 -239 0
-6 -238 0
-238 239 0
-17 -238 240 0
49 63 239 0
49 62 239 0
-49 -239 0
-62 -63 -239 0
20 240 -1083 0
-240 1083 0
-20 -240 0
233 241 242 0
233 234 241 0
234 241 -242 851 0
-233 -241 242 0
-234 -241 -242 0
-233 -241 -851 0
242 -243 1026 1027 0
-242 243 0
-242 -1027 0
-242 -1026 0
243 1028 1029 1030 0
-243 -1028 0
-243 -1030 0
-243 -1029 0
244 -248 314 0
110 244 -245 -248 0
-244 248 0
-244 245 -314 0
-110 -244 -314 0
245 433 -845 0
245 -246 -433 0
-245 246 -433 0
-245 433 845 0
-87 246 -807 0
83 -87 246 247 0
87 -246 0
-246 -247 807 0
-83 -246 807 0
247 325 844 0
-247 -325 0
-247 -844 0
-165 248 249 -252 -254 0
-248 254 0
165 -248 0
-248 252 0
-248 -249 0
245 249 250 0
245 246 249 0
246 249 -250 314 0
-245 -249 250 0
-246 -249 -250 0
-245 -249 -314 0
250 -251 489 490 493 0
-250 251 0
-250 -493 0
-250 -489 0
-250 -490 0
251 491 492 0
-251 -491 0
-251 -492 0
68 252 -253 0
71 252 -253 -546 0
-252 253 0
-68 -71 -252 0
-68 -252 546 0
105 119 253 0
105 118 253 0
-105 -253 0
-118 -119 -253 0
-73 254 -575 0
-254 575 0
73 -254 0
255 -256 -266 -275 0
255 256 266 -275 0
-255 275 0
-255 -256 266 0
-255 256 -266 0
-237 256 -257 851 0
-237 256 -257 -265 0
-256 257 0
237 -256 0
-256 265 -851 0
257 -258 -264 0
257 259 260 0
257 260 -264 0
-257 -259 264 0
-257 258 -260 0
-257 -260 264 0
258 1026 1027 0
-258 -1026 0
-258 -1027 0
-242 259 851 0
-259 -851 0
242 -259 0
260 261 -970 0
-29 260 -263 970 0
-260 -261 -970 0
29 -260 970 0
-260 263 970 0
-29 261 -262 0
29 -261 0
-261 262 0
262 -1257 -1259 0
43 262 1257 0
262 -1257 -1263 0
-43 -262 1257 0
-262 -1257 1259 1263 0
263 -1257 1259 1265 0
-263 1257 0
-263 -1265 0
-263 -1259 0
-261 264 1028 1029 1030 0
261 -264 0
-264 -1030 0
-264 -1028 0
-264 -1029 0
55 260 265 0
-55 -265 0
-260 -265 0
266 267 -274 -575 0
-266 575 0
-266 -267 0
-266 274 0
250 267 -268 0
267 272 273 0
267 -268 272 0
-267 268 -273 0
-250 -267 -272 0
-267 268 -272 0
268 269 -433 0
-87 268 -271 433 0
-268 -269 -433 0
87 -268 433 0
-268 271 433 0
-87 269 -270 0
87 -269 0
-269 270 0
270 -807 -809 0
83 270 807 0
270 -807 -813 0
-83 -270 807 0
-270 -807 809 813 0
271 -807 809 815 0
-271 807 0
-271 -815 0
-271 -809 0
250 272 314 0
-269 272 314 0
-272 -314 0
-250 269 -272 0
110 273 -314 0
-273 314 0
-110 -273 0
-72 -252 274 0
72 -274 0
252 -274 0
275 276 279 282 -284 0
275 -276 -279 282 -284 0
-275 -282 0
-275 276 -279 0
-275 284 0
-275 -276 279 0
-29 -238 276 277 -278 0
-276 278 0
29 -276 0
238 -276 0
-276 -277 0
-55 277 -851 0
-277 851 0
55 -277 0
-15 278 -1257 1259 0
-278 1257 0
-278 -1259 0
15 -278 0
-87 -274 279 280 -281 0
-279 281 0
87 -279 0
274 -279 0
-279 -280 0
-110 280 -314 0
-280 314 0
110 -280 0
281 -575 -807 809 0
-281 575 0
-281 807 0
-281 -809 0
-7 -9 -13 282 283 0
13 -282 0
-282 -283 0
7 -282 0
9 -282 0
8 11 283 0
-8 -283 0
-11 -283 0
19 284 -285 0
18 284 -285 0
20 284 -285 0
-284 285 0
-18 -19 -20 -284 0
30 37 285 -286 0
-36 37 285 -286 0
-285 286 0
-37 -285 0
-30 36 -285 0
43 -239 277 286 -287 0
239 -286 0
-277 -286 0
-43 -286 0
-286 287 0
-15 287 288 -855 0
-15 287 288 856 0
15 -287 0
-287 -288 0
-287 855 -856 0
288 853 854 0
-288 -853 0
-288 -854 0
120 289 -290 -299 0
-130 289 290 299 0
120 289 290 299 0
-130 289 -290 -299 0
-289 290 -299 0
-289 -290 299 0
-120 130 -289 0
-65 290 -291 0
-65 290 298 0
65 -290 0
-290 291 -298 0
76 -113 291 -292 0
-76 -113 291 -823 0
113 -291 0
76 -291 292 0
-76 -291 823 0
-78 292 -822 0
78 292 -293 0
-78 -292 822 0
78 -292 293 0
105 293 294 297 0
105 293 294 -296 0
-105 -293 0
-293 -294 0
-293 296 -297 0
294 -295 314 -489 0
82 294 314 489 0
-294 -314 0
-294 295 -489 0
-82 -294 489 0
-104 295 820 0
82 104 295 0
-104 -295 -820 0
-82 104 -295 0
-109 295 296 0
109 -296 0
-295 -296 0
111 297 -314 0
297 -314 821 0
-297 314 0
-111 -297 -821 0
-115 293 298 0
292 298 -510 0
-115 298 -510 0
292 293 298 0
115 -292 -298 0
-293 -298 510 0
-5 299 -300 0
-5 299 307 0
5 -299 0
-299 300 -307 0
22 -57 300 -301 0
-22 -57 300 -1273 0
57 -300 0
22 -300 301 0
-22 -300 1273 0
-24 301 -1272 0
24 301 -302 0
-24 -301 1272 0
24 -301 302 0
49 302 303 306 0
49 302 303 -305 0
-49 -302 0
-302 -303 0
-302 305 -306 0
303 -304 851 -1026 0
28 303 851 1026 0
-303 -851 0
-303 304 -1026 0
-28 -303 1026 0
-48 304 1270 0
28 48 304 0
-48 -304 -1270 0
-28 48 -304 0
-53 304 305 0
53 -305 0
-304 -305 0
54 306 -851 0
306 -851 1271 0
-306 851 0
-54 -306 -1271 0
-59 302 307 0
301 307 -1047 0
-59 307 -1047 0
301 302 307 0
59 -301 -307 0
-302 -307 1047 0
-69 -70 -71 308 0
69 -308 0
70 -308 0
71 -308 0
83 -253 309 310 -311 0
253 -309 0
-309 -310 0
-83 -309 0
-309 311 0
95 99 102 310 0
-95 -310 0
-102 -310 0
-99 -310 0
-74 88 280 311 -312 0
-311 312 0
-280 -311 0
74 -311 0
-88 -311 0
-73 312 -313 -575 -604 0
-312 313 0
-312 575 0
73 -312 0
-312 604 0
313 -317 -318 0
313 -316 319 0
313 -316 -318 0
313 -317 319 0
-313 318 -319 0
-313 316 317 0
1 2 0
-1 -2 0
1301 0

